NAME: random-59-14188
TYPE: TSP
COMMENT: size=59 seed=14188
DIMENSION: 120
EDGE_WEIGHT_TYPE: EUC_2D
NODE_COORD_SECTION
+0 716 510
-0 716 510
+1 814 554
-1 723 807
+2 385 425
-2 393 277
+3 13 866
-3 130 359
+4 742 529
-4 887 700
+5 783 51
-5 960 469
+6 45 432
-6 924 45
+7 814 624
-7 231 630
+8 475 765
-8 659 572
+9 227 55
-9 32 947
+10 708 156
-10 193 32
+11 959 3
-11 97 964
+12 229 539
-12 63 398
+13 773 172
-13 825 906
+14 718 303
-14 987 991
+15 491 982
-15 937 190
+16 882 188
-16 604 15
+17 302 642
-17 736 278
+18 23 89
-18 768 949
+19 394 398
-19 712 3
+20 605 306
-20 677 939
+21 450 303
-21 825 28
+22 328 295
-22 68 262
+23 880 362
-23 634 114
+24 246 823
-24 157 301
+25 107 850
-25 870 754
+26 296 134
-26 828 840
+27 718 368
-27 54 876
+28 464 761
-28 725 962
+29 594 366
-29 404 506
+30 250 651
-30 498 85
+31 753 694
-31 262 899
+32 926 121
-32 248 223
+33 12 274
-33 165 201
+34 430 685
-34 991 329
+35 236 143
-35 914 369
+36 511 567
-36 556 594
+37 661 771
-37 535 932
+38 24 374
-38 89 508
+39 673 247
-39 247 417
+40 272 55
-40 463 459
+41 650 248
-41 363 614
+42 834 205
-42 421 517
+43 615 997
-43 496 519
+44 670 240
-44 307 63
+45 907 997
-45 517 286
+46 921 89
-46 874 315
+47 568 149
-47 230 818
+48 34 467
-48 719 366
+49 690 949
-49 901 676
+50 447 46
-50 549 421
+51 277 932
-51 580 398
+52 623 158
-52 210 744
+53 879 89
-53 5 677
+54 984 348
-54 687 810
+55 543 328
-55 329 60
+56 262 293
-56 281 856
+57 871 353
-57 541 611
+58 773 814
-58 257 393
+59 637 604
-59 371 825
PRECEDENCE_SECTION
+0 -0
+1 -1
+2 -2
+3 -3
+4 -4
+5 -5
+6 -6
+7 -7
+8 -8
+9 -9
+10 -10
+11 -11
+12 -12
+13 -13
+14 -14
+15 -15
+16 -16
+17 -17
+18 -18
+19 -19
+20 -20
+21 -21
+22 -22
+23 -23
+24 -24
+25 -25
+26 -26
+27 -27
+28 -28
+29 -29
+30 -30
+31 -31
+32 -32
+33 -33
+34 -34
+35 -35
+36 -36
+37 -37
+38 -38
+39 -39
+40 -40
+41 -41
+42 -42
+43 -43
+44 -44
+45 -45
+46 -46
+47 -47
+48 -48
+49 -49
+50 -50
+51 -51
+52 -52
+53 -53
+54 -54
+55 -55
+56 -56
+57 -57
+58 -58
+59 -59
EOF
